(set-info :smt-lib-version 2.6)
(set-logic LRA)
(set-info :source |
   Monniaux, David; Quantifier Elimination by Lazy Model Enumeration, CAV 2010
|)
(set-info :category "random")
; ./Mjollnir_examples/B6/formula_012.m
(set-info :status unsat)
(assert
 (forall ((|v17:0| Real) )(forall ((|v16:1| Real) )(forall ((|v15:2| Real) )(forall ((|v14:3| Real) )(forall ((|v13:4| Real) )(forall ((|v12:5| Real) )(exists ((|v11:6| Real) )(exists ((|v10:7| Real) )(exists ((|v9:8| Real) )(exists ((|v8:9| Real) )(exists ((|v7:10| Real) )(exists ((|v6:11| Real) )(forall ((|v5:12| Real) )(forall ((|v4:13| Real) )(forall ((|v3:14| Real) )(forall ((|v2:15| Real) )(forall ((|v1:16| Real) )(forall ((|v0:17| Real) )(let ((?x10 2))
(let ((?x18 4))
(let ((?x1235 (* ?x18 |v6:11|)))
(let ((?x316 (- 5)))
(let ((?x1075 (* ?x316 |v10:7|)))
(let ((?x23 (- 7)))
(let ((?x736 (* ?x23 |v9:8|)))
(let ((?x114 7))
(let ((?x591 (* ?x114 |v13:4|)))
(let ((?x1262 (+ (+ (* (- 12) |v12:5|) (* 17 |v12:5|)) (* 20 |v15:2|))))
(let ((?x193 (- 13)))
(let ((?x190 13))
(let ((?x1189 (* ?x190 |v9:8|)))
(let ((?x43 (- 19)))
(let ((?x204 (* ?x43 |v9:8|)))
(let ((?x1249 (+ (+ (+ (* ?x23 |v13:4|) (* (- 3) |v12:5|)) (* ?x43 |v8:9|)) (* (- 1) |v10:7|))))
(let ((?x214 14))
(let ((?x155 15))
(let ((?x156 (* ?x155 |v2:15|)))
(let ((?x48 (- 2)))
(let ((?x570 (* ?x48 |v3:14|)))
(let ((?x826 (* ?x10 |v17:0|)))
(let ((?x1239 (+ (+ (+ (+ (* (- 1) |v1:16|) ?x1235) (* ?x155 |v5:12|)) ?x826) ?x570)))
(let (($x1255 (and (<= (+ (+ ?x1239 (* 12 |v17:0|)) ?x156) ?x214) (<= (+ (+ (+ ?x1249 (* 20 |v13:4|)) ?x204) ?x1189) ?x193))))
(let ((?x110 19))
(let ((?x980 (* ?x110 |v12:5|)))
(let ((?x100 (- 15)))
(let ((?x269 (* ?x100 |v7:10|)))
(let ((?x118 18))
(let ((?x817 (* ?x118 |v5:12|)))
(let ((?x74 (- 6)))
(let ((?x166 (* ?x74 |v0:17|)))
(let ((?x665 (* ?x114 |v1:16|)))
(let ((?x1229 (+ (+ (+ (* 8 |v3:14|) (* 17 |v11:6|)) ?x665) ?x166)))
(let ((?x36 (- 10)))
(let ((?x196 (* ?x23 |v16:1|)))
(let ((?x62 (- 4)))
(let ((?x947 (* ?x62 |v13:4|)))
(let ((?x92 (- 14)))
(let ((?x730 (* ?x92 |v14:3|)))
(let ((?x363 (- 11)))
(let ((?x914 (* ?x363 |v13:4|)))
(let ((?x1220 (+ (+ (* (- 3) |v16:1|) (* 16 |v6:11|)) (* 16 |v0:17|))))
(let (($x1234 (or (<= (+ (+ (+ (+ ?x1220 ?x914) ?x730) ?x947) ?x196) ?x36) (<= (+ (+ (+ ?x1229 ?x817) ?x269) ?x980) ?x214))))
(let ((?x39 16))
(let ((?x506 (* ?x110 |v0:17|)))
(let ((?x564 11))
(let ((?x596 (* ?x564 |v1:16|)))
(let ((?x58 (- 16)))
(let ((?x459 (* ?x58 |v17:0|)))
(let ((?x1209 (+ (+ (+ (+ (* ?x39 |v10:7|) (* ?x39 |v4:13|)) (* ?x118 |v4:13|)) ?x459) ?x596)))
(let ((?x434 (* ?x118 |v10:7|)))
(let ((?x79 (- 17)))
(let ((?x1037 (* ?x79 |v14:3|)))
(let ((?x1199 (+ (+ (+ (+ (* 17 |v11:6|) (* ?x193 |v8:9|)) ?x1037) ?x914) ?x434)))
(let (($x1204 (<= (+ (+ ?x1199 (* 5 |v3:14|)) (* 10 |v1:16|)) ?x118)))
(let ((?x150 8))
(let ((?x126 (* ?x39 |v8:9|)))
(let ((?x1186 (+ (+ (+ (* ?x18 |v4:13|) (* ?x316 |v4:13|)) (* ?x110 |v9:8|)) (* 20 |v17:0|))))
(let ((?x136 10))
(let ((?x350 (* ?x136 |v15:2|)))
(let ((?x175 (* ?x18 |v1:16|)))
(let ((?x1175 (+ (+ (* 3 |v11:6|) (* (- 20) |v5:12|)) (* ?x110 |v17:0|))))
(let (($x1182 (<= (+ (+ (+ (+ ?x1175 (* ?x39 |v5:12|)) (* ?x564 |v3:14|)) ?x175) ?x350) ?x43)))
(let (($x1215 (or (and $x1182 (<= (+ (+ (+ ?x1186 (* ?x62 |v6:11|)) ?x1189) ?x126) ?x150)) (and $x1204 (<= (+ (+ ?x1209 ?x506) (* ?x100 |v13:4|)) ?x39)))))
(let (($x1268 (and (and $x1215 (and $x1234 $x1255)) (<= (+ (+ (+ (+ ?x1262 ?x591) ?x736) ?x1075) ?x1235) ?x10))))
(let ((?x1162 (+ (+ (+ (* ?x114 |v10:7|) (* 17 |v8:9|)) (* ?x100 |v15:2|)) (* ?x564 |v17:0|))))
(let ((?x1168 (+ (+ (+ ?x1162 (* ?x23 |v1:16|)) (* 0 |v2:15|)) (* 17 |v5:12|))))
(let ((?x121 (- 8)))
(let ((?x984 (* ?x62 |v4:13|)))
(let ((?x718 (* ?x74 |v13:4|)))
(let ((?x1151 (+ (+ (+ (* ?x114 |v4:13|) (* ?x36 |v13:4|)) (* 3 |v14:3|)) (* 17 |v14:3|))))
(let ((?x319 (- 1)))
(let ((?x104 17))
(let ((?x763 (* ?x104 |v8:9|)))
(let ((?x824 (* ?x10 |v12:5|)))
(let ((?x1139 (+ (+ (+ (* ?x43 |v1:16|) (* ?x150 |v7:10|)) (* ?x155 |v16:1|)) (* ?x62 |v12:5|))))
(let (($x1157 (or (<= (+ (+ (+ ?x1139 (* ?x190 |v12:5|)) ?x824) ?x763) ?x319) (<= (+ (+ (+ ?x1151 ?x718) (* (- 20) |v4:13|)) ?x984) ?x121))))
(let ((?x53 (- 12)))
(let ((?x1125 (* ?x18 |v4:13|)))
(let ((?x1124 (+ (+ (* (- 3) |v4:13|) (* 0 |v13:4|)) (* (- 3) |v3:14|))))
(let ((?x1132 (+ (+ (+ (+ ?x1124 ?x1125) (* ?x79 |v16:1|)) (* ?x190 |v1:16|)) (* ?x48 |v14:3|))))
(let ((?x1116 (* ?x319 |v1:16|)))
(let ((?x163 (- 20)))
(let ((?x936 (* ?x163 |v12:5|)))
(let ((?x1110 (+ (+ (* 12 |v2:15|) (* 6 |v8:9|)) (* ?x104 |v10:7|))))
(let (($x1118 (<= (+ (+ (+ (+ ?x1110 (* ?x118 |v0:17|)) ?x936) (* ?x39 |v7:10|)) ?x1116) ?x58)))
(let ((?x820 (* ?x121 |v10:7|)))
(let ((?x201 6))
(let ((?x331 (* ?x201 |v0:17|)))
(let ((?x1098 (* ?x155 |v16:1|)))
(let ((?x1101 (+ (+ (+ (+ (* ?x74 |v3:14|) (* ?x150 |v16:1|)) (* ?x100 |v6:11|)) ?x1098) (* ?x62 |v1:16|))))
(let ((?x738 (* ?x110 |v10:7|)))
(let ((?x1088 (+ (+ (+ (* 0 |v0:17|) (* ?x136 |v12:5|)) (* ?x53 |v8:9|)) (* ?x43 |v13:4|))))
(let ((?x1093 (+ (+ (+ ?x1088 ?x738) (* 5 |v4:13|)) (* 0 |v8:9|))))
(let ((?x471 (* ?x118 |v13:4|)))
(let ((?x1074 (+ (+ (* (- 9) |v0:17|) (* (- 9) |v12:5|)) (* ?x190 |v3:14|))))
(let (($x1082 (<= (+ (+ (+ (+ ?x1074 ?x1075) ?x471) (* ?x79 |v9:8|)) (* ?x53 |v1:16|)) ?x48)))
(let ((?x248 20))
(let ((?x639 (* ?x193 |v2:15|)))
(let ((?x1066 (+ (+ (+ (* ?x10 |v11:6|) (* ?x74 |v4:13|)) (* ?x43 |v3:14|)) (* ?x53 |v7:10|))))
(let (($x1106 (and (and (<= (+ (+ (+ ?x1066 ?x639) ?x196) (* ?x201 |v10:7|)) ?x248) $x1082) (or (<= ?x1093 ?x201) (<= (+ (+ ?x1101 ?x331) ?x820) ?x104)))))
(let (($x1269 (and (and (or $x1106 $x1118) (or (<= ?x1132 ?x53) (and $x1157 (<= ?x1168 ?x58)))) $x1268)))
(let ((?x1048 (* ?x110 |v9:8|)))
(let ((?x1049 (+ (+ (+ (* ?x363 |v10:7|) (* 12 |v4:13|)) (* ?x79 |v17:0|)) ?x1048)))
(let (($x1056 (<= (+ (+ (+ ?x1049 (* ?x564 |v9:8|)) (* ?x121 |v12:5|)) (* ?x136 |v7:10|)) ?x190)))
(let ((?x14 3))
(let ((?x941 (* ?x14 |v6:11|)))
(let ((?x1038 (+ (+ (+ (+ (* ?x48 |v15:2|) (* ?x150 |v8:9|)) (* ?x214 |v4:13|)) ?x941) ?x1037)))
(let ((?x493 (* ?x79 |v13:4|)))
(let ((?x66 (- 9)))
(let ((?x1025 (* ?x66 |v0:17|)))
(let ((?x83 9))
(let ((?x222 (* ?x83 |v7:10|)))
(let ((?x1024 (+ (+ (+ (* ?x214 |v17:0|) (* 5 |v6:11|)) (* ?x118 |v14:3|)) ?x222)))
(let ((?x1013 (+ (+ (+ (* ?x118 |v12:5|) (* ?x10 |v5:12|)) (* ?x10 |v15:2|)) (* 0 |v12:5|))))
(let ((?x1019 (+ (+ (+ ?x1013 (* 0 |v7:10|)) (* ?x316 |v1:16|)) (* ?x14 |v8:9|))))
(let (($x1031 (or (<= ?x1019 ?x58) (<= (+ (+ (+ ?x1024 ?x1025) (* ?x23 |v8:9|)) ?x493) ?x150))))
(let (($x1058 (or $x1031 (and (<= (+ (+ ?x1038 (* ?x248 |v8:9|)) (* ?x319 |v4:13|)) ?x121) $x1056))))
(let ((?x140 0))
(let ((?x280 (* ?x140 |v0:17|)))
(let ((?x1001 (+ (+ (+ (+ |v3:14| (* ?x190 |v6:11|)) (* ?x36 |v6:11|)) (* ?x118 |v1:16|)) (* ?x62 |v0:17|))))
(let ((?x132 (- 18)))
(let ((?x133 (* ?x132 |v1:16|)))
(let ((?x989 (+ (+ (+ ?x984 (* ?x319 |v9:8|)) (* ?x248 |v16:1|)) (* 5 |v10:7|))))
(let (($x1006 (and (<= (+ (+ (+ ?x989 (* ?x564 |v15:2|)) ?x133) (* ?x10 |v3:14|)) ?x62) (<= (+ (+ ?x1001 (* ?x66 |v3:14|)) ?x280) ?x136))))
(let ((?x164 (* ?x163 |v5:12|)))
(let ((?x549 (* ?x155 |v0:17|)))
(let ((?x978 (+ (+ (+ (+ (* ?x74 |v4:13|) (* ?x23 |v0:17|)) (* ?x150 |v0:17|)) ?x549) (* 12 |v12:5|))))
(let ((?x194 (* ?x193 |v17:0|)))
(let ((?x261 (* ?x39 |v17:0|)))
(let ((?x966 (+ (+ (+ (+ (* ?x150 |v6:11|) (* ?x92 |v2:15|)) (* ?x43 |v10:7|)) ?x261) (* ?x190 |v13:4|))))
(let (($x983 (and (<= (+ (+ ?x966 ?x194) (* ?x43 |v15:2|)) ?x92) (<= (+ (+ ?x978 ?x164) ?x980) ?x39))))
(let ((?x412 (* ?x118 |v8:9|)))
(let ((?x224 (* ?x140 |v6:11|)))
(let ((?x955 (+ (+ (+ (+ (+ ?x947 ?x738) (* ?x62 |v5:12|)) (* ?x18 |v3:14|)) ?x224) (* ?x100 |v2:15|))))
(let ((?x773 (* ?x58 |v5:12|)))
(let ((?x942 (+ (+ (+ (+ (* 12 |v1:16|) ?x936) (* ?x100 |v0:17|)) ?x824) ?x941)))
(let (($x958 (and (<= (+ (+ ?x942 (* ?x92 |v13:4|)) ?x773) ?x118) (<= (+ ?x955 ?x412) ?x136))))
(let ((?x931 (* ?x36 |v6:11|)))
(let ((?x926 (+ (+ (+ (* ?x201 |v3:14|) (* ?x83 |v9:8|)) (* ?x214 |v9:8|)) (* ?x79 |v15:2|))))
(let ((?x917 (+ (+ (+ (+ (+ |v1:16| (* ?x136 |v13:4|)) ?x204) (* ?x132 |v6:11|)) ?x914) (* (- 3) |v5:12|))))
(let (($x934 (and (<= (+ ?x917 (* ?x118 |v11:6|)) ?x155) (<= (+ (+ (+ ?x926 (* ?x319 |v2:15|)) (* ?x100 |v12:5|)) ?x931) ?x363))))
(let ((?x173 5))
(let ((?x791 (* ?x114 |v7:10|)))
(let ((?x846 (* ?x121 |v15:2|)))
(let ((?x904 (+ (+ (+ (* ?x23 |v13:4|) (* ?x363 |v14:3|)) (* ?x110 |v13:4|)) (* ?x163 |v10:7|))))
(let ((?x373 (* ?x58 |v9:8|)))
(let ((?x628 (* ?x92 |v7:10|)))
(let ((?x892 (+ (+ (+ (+ (* ?x43 |v17:0|) (* ?x100 |v14:3|)) (* ?x201 |v8:9|)) |v9:8|) ?x628)))
(let ((?x31 (- 3)))
(let ((?x885 (* ?x248 |v16:1|)))
(let ((?x880 (+ (+ (+ (* ?x316 |v8:9|) (* ?x319 |v7:10|)) (* ?x316 |v2:15|)) (* ?x316 |v11:6|))))
(let (($x897 (and (<= (+ (+ (+ ?x880 (* ?x155 |v9:8|)) (* ?x132 |v9:8|)) ?x885) ?x31) (<= (+ (+ ?x892 ?x373) (* ?x43 |v12:5|)) ?x190))))
(let (($x960 (and (and $x897 (<= (+ (+ (+ ?x904 ?x846) ?x791) (* ?x319 |v6:11|)) ?x173)) (or $x934 $x958))))
(let ((?x292 (* ?x53 |v6:11|)))
(let ((?x865 (* ?x150 |v6:11|)))
(let ((?x187 12))
(let ((?x861 (* ?x187 |v4:13|)))
(let ((?x866 (+ (+ (+ (+ (* ?x114 |v6:11|) (* ?x187 |v13:4|)) ?x861) (* ?x43 |v16:1|)) ?x865)))
(let ((?x853 (+ (+ (+ (+ (* ?x564 |v8:9|) ?x846) (* ?x132 |v8:9|)) (* ?x319 |v8:9|)) (* ?x564 |v13:4|))))
(let (($x871 (or (<= (+ (+ ?x853 (* ?x319 |v11:6|)) (* ?x92 |v17:0|)) ?x48) (<= (+ (+ ?x866 (* ?x43 |v2:15|)) ?x292) ?x319))))
(let ((?x455 (* ?x193 |v16:1|)))
(let ((?x300 (* ?x43 |v7:10|)))
(let ((?x777 (* ?x132 |v6:11|)))
(let ((?x840 (+ (+ (+ (+ ?x730 (* ?x363 |v11:6|)) (* ?x132 |v15:2|)) (* ?x564 |v2:15|)) ?x777)))
(let ((?x557 (* ?x39 |v16:1|)))
(let ((?x830 (+ (+ (+ (+ (+ (* ?x319 |v17:0|) (* ?x18 |v14:3|)) ?x824) ?x826) ?x557) (* ?x31 |v2:15|))))
(let (($x844 (and (<= (+ ?x830 (* ?x48 |v9:8|)) ?x214) (<= (+ (+ ?x840 ?x300) ?x455) ?x74))))
(let ((?x202 (* ?x201 |v7:10|)))
(let ((?x816 (+ (+ (+ (* ?x83 |v6:11|) (* ?x100 |v9:8|)) (* ?x18 |v10:7|)) (* ?x66 |v9:8|))))
(let ((?x680 (* ?x163 |v8:9|)))
(let ((?x801 (+ (+ (+ (* ?x83 |v1:16|) (* ?x316 |v4:13|)) (* ?x319 |v7:10|)) (* ?x248 |v5:12|))))
(let ((?x276 (* ?x163 |v3:14|)))
(let ((?x790 (+ (+ (+ (* ?x132 |v7:10|) (* ?x187 |v14:3|)) (* ?x10 |v9:8|)) (* ?x83 |v3:14|))))
(let (($x808 (or (<= (+ (+ (+ ?x790 ?x791) ?x276) (* ?x163 |v14:3|)) ?x114) (<= (+ (+ (+ ?x801 ?x680) (* ?x18 |v17:0|)) (* ?x14 |v10:7|)) ?x190))))
(let ((?x32 (* ?x31 |v1:16|)))
(let ((?x232 (* ?x121 |v11:6|)))
(let ((?x780 (+ (+ (+ (+ (* ?x10 |v11:6|) ?x773) (* ?x163 |v2:15|)) ?x777) (* ?x23 |v7:10|))))
(let ((?x310 (* ?x214 |v0:17|)))
(let ((?x768 (+ (+ (+ (+ ?x763 (* ?x248 |v6:11|)) (* ?x53 |v3:14|)) (* ?x23 |v5:12|)) ?x310)))
(let (($x784 (and (<= (+ (+ ?x768 ?x202) (* ?x10 |v8:9|)) ?x150) (<= (+ (+ ?x780 ?x232) ?x32) ?x39))))
(let ((?x416 (* ?x66 |v10:7|)))
(let ((?x757 (+ (+ (+ (+ (* ?x104 |v16:1|) (* ?x316 |v15:2|)) (* ?x10 |v7:10|)) ?x730) ?x416)))
(let (($x810 (and (<= (+ (+ ?x757 (* ?x136 |v4:13|)) (* ?x190 |v15:2|)) ?x43) (or $x784 $x808))))
(let (($x874 (or $x810 (or (<= (+ (+ (+ ?x816 ?x817) ?x202) ?x820) ?x150) (and $x844 $x871)))))
(let ((?x525 (* ?x83 |v2:15|)))
(let ((?x743 (+ (+ (+ (+ (+ ?x736 (* ?x248 |v3:14|)) ?x738) (* ?x58 |v1:16|)) ?x525) (* ?x62 |v7:10|))))
(let ((?x168 1))
(let ((?x732 (* ?x39 |v4:13|)))
(let ((?x731 (+ (+ (+ (+ (* ?x114 |v5:12|) (* ?x31 |v6:11|)) |v9:8|) (* ?x163 |v16:1|)) ?x730)))
(let (($x747 (and (<= (+ (+ ?x731 ?x732) |v0:17|) ?x168) (<= (+ ?x743 (* ?x187 |v11:6|)) ?x190))))
(let ((?x625 (* ?x132 |v12:5|)))
(let ((?x717 (+ (+ (+ (+ (* ?x118 |v14:3|) (* ?x363 |v1:16|)) (* ?x140 |v5:12|)) ?x625) (* ?x53 |v17:0|))))
(let ((?x258 (* ?x155 |v8:9|)))
(let ((?x707 (+ (+ (+ (+ (* ?x39 |v15:2|) (* ?x190 |v10:7|)) (* ?x39 |v14:3|)) ?x258) |v14:3|)))
(let (($x723 (and (<= (+ (+ ?x707 ?x261) (* ?x564 |v12:5|)) ?x110) (<= (+ (+ ?x717 ?x718) (* ?x48 |v16:1|)) ?x173))))
(let ((?x127 (* ?x104 |v3:14|)))
(let ((?x693 (+ (+ (+ (* ?x150 |v8:9|) (* ?x14 |v12:5|)) (* ?x193 |v0:17|)) (* ?x319 |v14:3|))))
(let ((?x686 (* ?x150 |v8:9|)))
(let ((?x141 (* ?x140 |v4:13|)))
(let ((?x616 (* ?x39 |v13:4|)))
(let ((?x684 (+ (+ (+ (+ (* ?x136 |v13:4|) (* ?x163 |v11:6|)) ?x680) (* ?x110 |v11:6|)) ?x616)))
(let (($x699 (and (<= (+ (+ ?x684 ?x141) ?x686) ?x53) (<= (+ (+ (+ ?x693 ?x331) (* ?x36 |v10:7|)) ?x127) ?x14))))
(let ((?x673 (* ?x14 |v11:6|)))
(let ((?x670 (+ (+ (+ (+ (* ?x36 |v16:1|) (* ?x58 |v2:15|)) ?x665) (* ?x319 |v17:0|)) (* ?x564 |v10:7|))))
(let ((?x226 (* ?x31 |v17:0|)))
(let ((?x590 (* ?x193 |v10:7|)))
(let ((?x658 (+ (+ (+ (* ?x140 |v5:12|) (* ?x36 |v16:1|)) (* ?x43 |v10:7|)) (* ?x62 |v11:6|))))
(let (($x676 (or (<= (+ (+ (+ ?x658 ?x590) ?x226) (* ?x140 |v16:1|)) ?x150) (<= (+ (+ ?x670 (* ?x193 |v6:11|)) ?x673) ?x36))))
(let ((?x648 (* ?x100 |v14:3|)))
(let ((?x647 (+ (+ (+ (+ ?x639 (* ?x140 |v17:0|)) (* ?x150 |v10:7|)) (* ?x79 |v8:9|)) (* ?x100 |v1:16|))))
(let (($x750 (and (<= (+ (+ ?x647 ?x648) (* ?x110 |v8:9|)) ?x58) (or (or $x676 $x699) (and $x723 $x747)))))
(let ((?x410 (* ?x58 |v2:15|)))
(let ((?x631 (* ?x66 |v12:5|)))
(let ((?x632 (+ (+ (+ (+ (+ (* ?x190 |v14:3|) ?x625) (* ?x48 |v6:11|)) ?x628) ?x261) ?x631)))
(let ((?x614 (* ?x83 |v9:8|)))
(let ((?x622 (+ (+ (+ (+ (+ (+ ?x614 |v16:1|) ?x616) (* ?x23 |v5:12|)) ?x614) ?x156) (* ?x173 |v9:8|))))
(let ((?x609 (+ (+ (+ (+ (* ?x173 |v17:0|) (* ?x564 |v0:17|)) (* ?x104 |v17:0|)) |v10:7|) (* ?x43 |v5:12|))))
(let (($x636 (and (<= (+ (+ ?x609 |v12:5|) (* ?x100 |v8:9|)) ?x363) (or (<= ?x622 ?x163) (<= (+ ?x632 ?x410) ?x187)))))
(let ((?x599 (+ (+ (+ (+ (+ ?x590 ?x591) (* ?x136 |v5:12|)) |v2:15|) ?x596) (* ?x74 |v14:3|))))
(let ((?x27 (* ?x23 |v3:14|)))
(let ((?x580 (+ (+ (+ (* ?x100 |v9:8|) (* ?x100 |v11:6|)) (* ?x18 |v7:10|)) (* ?x104 |v1:16|))))
(let ((?x574 (* ?x248 |v6:11|)))
(let ((?x265 (* ?x104 |v7:10|)))
(let ((?x236 (* ?x121 |v2:15|)))
(let ((?x572 (+ (+ (+ (+ (* ?x564 |v5:12|) (* ?x214 |v14:3|)) (* ?x155 |v14:3|)) ?x570) ?x236)))
(let (($x587 (or (<= (+ (+ ?x572 ?x265) ?x574) ?x10) (<= (+ (+ (+ ?x580 (* ?x114 |v12:5|)) (* ?x10 |v4:13|)) ?x27) ?x58))))
(let ((?x555 (* ?x100 |v15:2|)))
(let ((?x556 (+ (+ (+ (+ (* ?x31 |v8:9|) ?x549) (* ?x36 |v3:14|)) (* ?x114 |v0:17|)) ?x555)))
(let ((?x542 (+ (+ (+ (+ (* ?x114 |v11:6|) ?x202) (* ?x79 |v7:10|)) (* ?x79 |v12:5|)) (* ?x121 |v5:12|))))
(let (($x562 (or (<= (+ (+ ?x542 (* ?x110 |v15:2|)) (* ?x14 |v0:17|)) ?x168) (<= (+ (+ ?x556 ?x557) (* ?x316 |v17:0|)) ?x190))))
(let ((?x253 (* ?x31 |v15:2|)))
(let ((?x531 (* ?x190 |v6:11|)))
(let ((?x530 (+ (+ (+ (+ (* ?x92 |v6:11|) ?x525) (* ?x31 |v14:3|)) (* ?x316 |v12:5|)) |v7:10|)))
(let ((?x519 (* ?x136 |v12:5|)))
(let ((?x80 (* ?x79 |v5:12|)))
(let ((?x321 (* ?x201 |v12:5|)))
(let ((?x518 (+ (+ (+ (+ (* ?x74 |v11:6|) (* ?x110 |v3:14|)) (* ?x110 |v5:12|)) ?x321) ?x80)))
(let (($x535 (and (<= (+ (+ ?x518 ?x519) (* ?x58 |v14:3|)) ?x31) (<= (+ (+ ?x530 ?x531) ?x253) ?x168))))
(let ((?x504 (+ (+ (+ (* ?x140 |v9:8|) (* ?x58 |v1:16|)) (* ?x132 |v7:10|)) (* ?x48 |v1:16|))))
(let ((?x394 (* ?x48 |v13:4|)))
(let ((?x492 (+ (+ (+ (+ (* ?x39 |v3:14|) (* ?x92 |v9:8|)) (* ?x74 |v15:2|)) ?x394) (* ?x48 |v5:12|))))
(let (($x511 (or (<= (+ (+ ?x492 ?x493) (* ?x110 |v14:3|)) ?x114) (<= (+ (+ (+ ?x504 ?x80) ?x506) (* ?x58 |v16:1|)) ?x187))))
(let (($x638 (and (and (or $x511 $x535) (or $x562 $x587)) (and (<= (+ ?x599 ?x506) ?x110) $x636))))
(let ((?x329 (* ?x316 |v15:2|)))
(let ((?x477 (+ (+ (+ (+ (* ?x104 |v13:4|) ?x471) ?x127) (* ?x100 |v11:6|)) (* ?x248 |v2:15|))))
(let ((?x465 (* ?x74 |v15:2|)))
(let ((?x464 (+ (+ (+ (+ ?x459 (* ?x14 |v15:2|)) (* ?x18 |v16:1|)) (* ?x140 |v10:7|)) ?x373)))
(let (($x482 (and (<= (+ (+ ?x464 ?x465) (* ?x14 |v9:8|)) ?x319) (<= (+ (+ ?x477 (* ?x100 |v10:7|)) ?x329) ?x31))))
(let ((?x452 (+ (+ (+ (+ (* ?x66 |v2:15|) (* ?x190 |v0:17|)) (* ?x66 |v6:11|)) ?x80) (* ?x201 |v11:6|))))
(let ((?x93 (* ?x92 |v3:14|)))
(let ((?x440 (+ (+ (+ (+ (* ?x79 |v12:5|) ?x434) (* ?x155 |v15:2|)) (* ?x36 |v2:15|)) (* ?x193 |v12:5|))))
(let (($x458 (or (<= (+ (+ ?x440 (* ?x53 |v4:13|)) ?x93) ?x140) (<= (+ (+ ?x452 (* ?x31 |v0:17|)) ?x455) ?x121))))
(let ((?x355 (* ?x155 |v11:6|)))
(let ((?x426 (+ (+ (+ (+ ?x410 (* ?x121 |v3:14|)) (* ?x83 |v0:17|)) (* ?x79 |v2:15|)) (* ?x62 |v17:0|))))
(let ((?x414 (* ?x36 |v2:15|)))
(let ((?x413 (+ (+ (+ (+ (* ?x214 |v10:7|) (* ?x136 |v3:14|)) (* ?x173 |v6:11|)) ?x410) ?x412)))
(let (($x431 (and (<= (+ (+ ?x413 ?x414) ?x416) ?x74) (<= (+ (+ ?x426 ?x355) (* ?x100 |v16:1|)) ?x110))))
(let ((?x402 (+ (+ (+ (+ (+ |v11:6| ?x394) (* ?x248 |v11:6|)) ?x276) (* ?x118 |v12:5|)) (* ?x363 |v2:15|))))
(let ((?x383 (* ?x316 |v6:11|)))
(let ((?x389 (* ?x14 |v12:5|)))
(let ((?x390 (+ (+ (+ (+ (* ?x83 |v17:0|) ?x383) (* ?x110 |v6:11|)) (* ?x132 |v0:17|)) ?x389)))
(let (($x406 (or (<= (+ (+ ?x390 ?x202) ?x383) ?x53) (<= (+ ?x402 (* ?x121 |v1:16|)) ?x110))))
(let ((?x371 (* ?x319 |v7:10|)))
(let ((?x374 (+ (+ (+ (+ (* ?x363 |v16:1|) (* ?x248 |v3:14|)) (* ?x190 |v4:13|)) ?x371) ?x373)))
(let ((?x361 (* ?x74 |v3:14|)))
(let ((?x358 (+ (+ (+ (+ ?x350 (* ?x121 |v6:11|)) (* ?x39 |v12:5|)) ?x355) (* ?x248 |v14:3|))))
(let ((?x343 (* ?x31 |v14:3|)))
(let ((?x342 (+ (+ (+ (* ?x48 |v17:0|) (* ?x173 |v6:11|)) (* ?x18 |v8:9|)) (* ?x79 |v4:13|))))
(let (($x365 (and (<= (+ (+ (+ ?x342 ?x343) (* ?x201 |v2:15|)) ?x175) ?x132) (<= (+ (+ ?x358 (* ?x163 |v9:8|)) ?x361) ?x363))))
(let ((?x328 (+ (+ (+ (+ ?x321 (* ?x100 |v6:11|)) (* ?x163 |v7:10|)) (* ?x36 |v8:9|)) (* ?x36 |v17:0|))))
(let ((?x317 (* ?x316 |v4:13|)))
(let ((?x313 (+ (+ (+ (+ (* ?x187 |v10:7|) (* ?x248 |v1:16|)) (* ?x14 |v16:1|)) ?x310) (* ?x155 |v1:16|))))
(let (($x334 (or (<= (+ (+ ?x313 |v0:17|) ?x317) ?x319) (<= (+ (+ ?x328 ?x329) ?x331) ?x62))))
(let ((?x298 (* ?x201 |v8:9|)))
(let ((?x297 (+ (+ (+ (+ (* ?x48 |v4:13|) (* ?x118 |v4:13|)) ?x292) (* ?x163 |v6:11|)) (* ?x18 |v5:12|))))
(let ((?x286 (* ?x100 |v6:11|)))
(let ((?x283 (+ (+ (+ (+ ?x276 (* ?x150 |v14:3|)) (* ?x79 |v7:10|)) ?x280) (* ?x187 |v16:1|))))
(let (($x303 (and (<= (+ (+ ?x283 (* ?x140 |v15:2|)) ?x286) ?x214) (<= (+ (+ ?x297 ?x298) ?x300) ?x121))))
(let (($x381 (or (and $x303 $x334) (or $x365 (<= (+ (+ ?x374 (* ?x190 |v2:15|)) (* ?x214 |v5:12|)) ?x14)))))
(let ((?x268 (+ (+ (+ (+ (+ ?x258 (* ?x23 |v5:12|)) ?x261) (* ?x155 |v5:12|)) ?x265) (* ?x66 |v15:2|))))
(let ((?x250 (+ (+ (+ (* ?x150 |v14:3|) (* ?x155 |v12:5|)) (* ?x114 |v6:11|)) (* ?x248 |v10:7|))))
(let (($x272 (and (<= (+ (+ (+ ?x250 (* ?x36 |v14:3|)) ?x253) (* ?x53 |v14:3|)) ?x140) (<= (+ ?x268 ?x269) ?x31))))
(let ((?x238 (* ?x43 |v10:7|)))
(let ((?x237 (+ (+ (+ (+ (* ?x74 |v17:0|) (* ?x150 |v2:15|)) ?x232) (* ?x62 |v15:2|)) ?x236)))
(let ((?x220 (* ?x10 |v11:6|)))
(let ((?x223 (+ (+ (+ (+ (* ?x214 |v10:7|) (* ?x193 |v5:12|)) (* ?x79 |v0:17|)) ?x220) ?x222)))
(let (($x274 (and (<= (+ (+ ?x223 ?x224) ?x226) ?x118) (and (<= (+ (+ ?x237 ?x238) |v15:2|) ?x121) $x272))))
(let ((?x205 (+ (+ (+ (+ (+ (* ?x190 |v11:6|) ?x194) ?x196) (* ?x100 |v5:12|)) ?x202) ?x204)))
(let ((?x182 (+ (+ (+ (+ (* ?x173 |v5:12|) ?x175) (* ?x173 |v8:9|)) (* ?x104 |v4:13|)) (* ?x14 |v2:15|))))
(let (($x209 (and (<= (+ (+ ?x182 (* ?x79 |v1:16|)) (* ?x100 |v4:13|)) ?x187) (<= (+ ?x205 (* ?x118 |v3:14|)) ?x110))))
(let ((?x161 (+ (+ (+ (+ (* ?x104 |v0:17|) (* ?x150 |v13:4|)) ?x156) (* ?x14 |v4:13|)) (* ?x83 |v14:3|))))
(let ((?x142 (+ (+ (+ (+ (+ ?x126 ?x127) (* ?x66 |v11:6|)) ?x133) (* ?x136 |v8:9|)) ?x141)))
(let (($x170 (or (<= (+ ?x142 (* ?x121 |v7:10|)) ?x10) (<= (+ (+ ?x161 ?x164) ?x166) ?x168))))
(let ((?x119 (* ?x118 |v14:3|)))
(let ((?x107 (* ?x92 |v9:8|)))
(let ((?x112 (+ (+ (+ (+ (* ?x10 |v16:1|) (* ?x100 |v9:8|)) (* ?x104 |v16:1|)) ?x107) (* ?x110 |v7:10|))))
(let ((?x89 (* ?x18 |v16:1|)))
(let ((?x88 (+ (+ (+ (+ (* ?x74 |v16:1|) (* ?x43 |v4:13|)) ?x80) (* ?x83 |v12:5|)) (* ?x66 |v17:0|))))
(let (($x123 (and (<= (+ (+ ?x88 ?x89) ?x93) ?x83) (<= (+ (+ ?x112 (* ?x114 |v14:3|)) ?x119) ?x121))))
(let ((?x55 (+ (+ (+ (* ?x43 |v4:13|) (* ?x18 |v7:10|)) (* ?x48 |v6:11|)) (* ?x53 |v0:17|))))
(let (($x69 (<= (+ (+ (+ ?x55 (* ?x58 |v11:6|)) (* ?x62 |v14:3|)) (* ?x66 |v7:10|)) ?x10)))
(let ((?x25 (+ (+ (+ (* ?x10 |v14:3|) (* ?x14 |v15:2|)) (* ?x18 |v14:3|)) (* ?x23 |v6:11|))))
(let (($x124 (and (or (<= (+ (+ (+ ?x25 ?x27) ?x32) (* ?x36 |v7:10|)) ?x39) $x69) $x123)))
(let (($x486 (and (or (and $x124 (or $x170 $x209)) $x274) (or $x381 (and (and $x406 $x431) (or $x458 $x482))))))
(and (and $x486 (and $x638 $x750)) (and (or $x874 (or $x960 (and (and $x983 $x1006) $x1058))) $x1269)))))))))))))))))))))))))))))))))))))))))))))))))))))))))))))))))))))))))))))))))))))))))))))))))))))))))))))))))))))))))))))))))))))))))))))))))))))))))))))))))))))))))))))))))))))))))))))))))))))))))))))))))))))))))))))))))))))))))))))))))))))))))))))))))))))))))))))))))))))))))))))))))))))))))))))))))))))
)
)
)
)
)
)
)
)
)
)
)
)
)
)
)
)
)
)
(check-sat)
(exit)

